============================[ Problem Statistics ]=============================
|                                                                             |
|  Number of variables:        100512                                         |
|  Number of clauses:          270176                                         |
|  Parse time:                   0.18 s                                       |
|  Eliminated clauses:           2.13 Mb                                      |
|  Simplification time:          0.41 s                                       |
|                                                                             |
============================[ Search Statistics ]==============================
| Conflicts |          ORIGINAL         |          LEARNT          | Progress |
|           |    Vars  Clauses Literals |    Limit  Clauses Lit/Cl |          |
===============================================================================
===============================================================================
restarts              : 1
conflicts             : 26             (44 /sec)
decisions             : 156            (0.00 % random) (263 /sec)
propagations          : 39249          (66233 /sec)
conflict literals     : 61             (3.17 % deleted)
Memory used           : 29.58 MB
CPU time              : 0.592587 s

UNSATISFIABLE
